c "131932.clq"
p edge 100 1344
e 1 17
e 1 18
e 1 19
e 1 20
e 1 21
e 1 22
e 1 25
e 1 26
e 1 28
e 1 30
e 1 33
e 1 37
e 1 44
e 1 45
e 1 47
e 1 60
e 1 65
e 1 67
e 1 71
e 1 78
e 1 86
e 1 96
e 1 100
e 2 17
e 2 18
e 2 19
e 2 20
e 2 22
e 2 24
e 2 33
e 2 34
e 2 36
e 2 52
e 2 56
e 2 58
e 2 59
e 2 61
e 2 62
e 2 66
e 2 74
e 2 79
e 2 95
e 2 96
e 3 17
e 3 18
e 3 19
e 3 20
e 3 21
e 3 22
e 3 23
e 3 25
e 3 26
e 3 28
e 3 30
e 3 32
e 3 33
e 3 35
e 3 36
e 3 37
e 3 44
e 3 45
e 3 46
e 3 48
e 3 54
e 3 63
e 3 70
e 3 71
e 3 75
e 3 77
e 3 81
e 3 83
e 3 84
e 4 17
e 4 18
e 4 19
e 4 20
e 4 21
e 4 22
e 4 23
e 4 24
e 4 25
e 4 26
e 4 27
e 4 28
e 4 29
e 4 30
e 4 31
e 4 32
e 4 35
e 4 36
e 4 37
e 4 41
e 4 48
e 4 50
e 4 51
e 4 53
e 4 54
e 4 57
e 4 63
e 4 72
e 4 73
e 4 85
e 4 88
e 4 98
e 5 17
e 5 18
e 5 19
e 5 23
e 5 24
e 5 29
e 5 30
e 5 34
e 5 38
e 5 59
e 5 62
e 5 63
e 6 17
e 6 18
e 6 20
e 6 26
e 6 27
e 6 33
e 6 40
e 6 42
e 6 48
e 6 56
e 6 69
e 6 81
e 6 93
e 6 96
e 6 98
e 7 17
e 7 18
e 7 19
e 7 21
e 7 22
e 7 23
e 7 24
e 7 26
e 7 28
e 7 33
e 7 34
e 7 36
e 7 39
e 7 41
e 7 42
e 7 43
e 7 45
e 7 50
e 7 51
e 7 53
e 7 55
e 7 57
e 7 67
e 7 69
e 7 81
e 7 85
e 7 86
e 7 87
e 7 90
e 7 91
e 7 94
e 7 98
e 7 99
e 8 17
e 8 18
e 8 19
e 8 20
e 8 21
e 8 22
e 8 24
e 8 25
e 8 28
e 8 29
e 8 30
e 8 33
e 8 34
e 8 36
e 8 38
e 8 39
e 8 41
e 8 43
e 8 44
e 8 46
e 8 53
e 8 62
e 8 69
e 8 77
e 8 79
e 8 80
e 8 81
e 8 83
e 8 85
e 8 90
e 8 97
e 9 17
e 9 18
e 9 19
e 9 20
e 9 22
e 9 23
e 9 24
e 9 25
e 9 27
e 9 31
e 9 33
e 9 38
e 9 43
e 9 47
e 9 48
e 9 49
e 9 52
e 9 63
e 9 64
e 9 71
e 9 73
e 9 80
e 9 94
e 9 98
e 9 99
e 10 17
e 10 20
e 10 21
e 10 23
e 10 24
e 10 25
e 10 26
e 10 27
e 10 29
e 10 31
e 10 32
e 10 35
e 10 37
e 10 44
e 10 48
e 10 49
e 10 51
e 10 52
e 10 55
e 10 73
e 10 78
e 10 91
e 10 100
e 11 17
e 11 18
e 11 19
e 11 20
e 11 21
e 11 22
e 11 25
e 11 27
e 11 29
e 11 31
e 11 38
e 11 41
e 11 50
e 11 61
e 11 62
e 11 66
e 11 67
e 11 68
e 11 70
e 11 73
e 11 75
e 11 79
e 11 80
e 11 81
e 11 83
e 11 85
e 11 86
e 11 100
e 12 17
e 12 18
e 12 19
e 12 20
e 12 21
e 12 22
e 12 23
e 12 25
e 12 27
e 12 30
e 12 37
e 12 38
e 12 42
e 12 49
e 12 53
e 12 56
e 12 64
e 12 68
e 12 69
e 12 71
e 12 79
e 12 87
e 12 90
e 12 93
e 13 17
e 13 18
e 13 19
e 13 20
e 13 21
e 13 22
e 13 23
e 13 24
e 13 25
e 13 26
e 13 27
e 13 28
e 13 31
e 13 36
e 13 40
e 13 41
e 13 42
e 13 45
e 13 50
e 13 62
e 13 64
e 13 68
e 13 83
e 13 89
e 14 17
e 14 18
e 14 19
e 14 20
e 14 21
e 14 22
e 14 23
e 14 24
e 14 26
e 14 27
e 14 29
e 14 30
e 14 32
e 14 35
e 14 42
e 14 43
e 14 51
e 14 52
e 14 57
e 14 58
e 14 60
e 14 66
e 14 67
e 14 79
e 14 82
e 14 89
e 14 90
e 14 91
e 14 94
e 14 98
e 15 17
e 15 18
e 15 19
e 15 20
e 15 21
e 15 23
e 15 24
e 15 27
e 15 28
e 15 29
e 15 30
e 15 35
e 15 38
e 15 40
e 15 41
e 15 49
e 15 51
e 15 52
e 15 54
e 15 57
e 15 58
e 15 72
e 15 84
e 15 92
e 15 96
e 16 17
e 16 18
e 16 19
e 16 21
e 16 22
e 16 32
e 16 33
e 16 36
e 16 37
e 16 38
e 16 43
e 16 44
e 16 49
e 16 50
e 16 63
e 16 65
e 16 71
e 16 75
e 16 80
e 16 87
e 17 18
e 17 19
e 17 20
e 17 21
e 17 22
e 17 23
e 17 24
e 17 25
e 17 26
e 17 27
e 17 30
e 17 31
e 17 32
e 17 35
e 17 37
e 17 38
e 17 40
e 17 41
e 17 42
e 17 43
e 17 44
e 17 45
e 17 46
e 17 47
e 17 49
e 17 51
e 17 52
e 17 55
e 17 56
e 17 62
e 17 65
e 17 66
e 17 68
e 17 75
e 17 76
e 17 79
e 17 82
e 17 89
e 17 91
e 17 93
e 17 94
e 18 19
e 18 20
e 18 21
e 18 23
e 18 24
e 18 26
e 18 27
e 18 28
e 18 29
e 18 31
e 18 32
e 18 33
e 18 34
e 18 35
e 18 36
e 18 37
e 18 38
e 18 39
e 18 40
e 18 41
e 18 43
e 18 44
e 18 46
e 18 47
e 18 48
e 18 49
e 18 50
e 18 51
e 18 52
e 18 54
e 18 55
e 18 57
e 18 62
e 18 65
e 18 66
e 18 68
e 18 69
e 18 70
e 18 74
e 18 77
e 18 78
e 18 81
e 18 82
e 18 97
e 19 20
e 19 21
e 19 22
e 19 23
e 19 24
e 19 25
e 19 26
e 19 28
e 19 29
e 19 31
e 19 32
e 19 34
e 19 35
e 19 36
e 19 37
e 19 38
e 19 39
e 19 41
e 19 43
e 19 44
e 19 45
e 19 46
e 19 47
e 19 49
e 19 53
e 19 54
e 19 57
e 19 58
e 19 59
e 19 60
e 19 63
e 19 64
e 19 65
e 19 67
e 19 68
e 19 69
e 19 70
e 19 71
e 19 73
e 19 75
e 19 76
e 19 78
e 19 81
e 19 82
e 19 83
e 19 84
e 19 90
e 19 91
e 19 92
e 19 93
e 19 97
e 19 100
e 20 21
e 20 22
e 20 23
e 20 24
e 20 25
e 20 26
e 20 27
e 20 28
e 20 29
e 20 30
e 20 31
e 20 32
e 20 34
e 20 35
e 20 36
e 20 37
e 20 38
e 20 39
e 20 40
e 20 42
e 20 43
e 20 45
e 20 46
e 20 47
e 20 50
e 20 53
e 20 55
e 20 58
e 20 60
e 20 63
e 20 66
e 20 71
e 20 75
e 20 78
e 20 80
e 20 87
e 20 88
e 20 89
e 20 94
e 20 100
e 21 22
e 21 23
e 21 24
e 21 25
e 21 26
e 21 27
e 21 28
e 21 29
e 21 30
e 21 31
e 21 32
e 21 33
e 21 34
e 21 39
e 21 40
e 21 42
e 21 44
e 21 45
e 21 46
e 21 47
e 21 48
e 21 51
e 21 52
e 21 53
e 21 54
e 21 56
e 21 57
e 21 59
e 21 60
e 21 61
e 21 70
e 21 72
e 21 74
e 21 83
e 21 88
e 21 89
e 21 96
e 22 23
e 22 25
e 22 26
e 22 28
e 22 32
e 22 34
e 22 35
e 22 36
e 22 39
e 22 40
e 22 41
e 22 42
e 22 44
e 22 47
e 22 50
e 22 55
e 22 64
e 22 65
e 22 68
e 22 69
e 22 70
e 22 71
e 22 72
e 22 75
e 22 77
e 22 81
e 22 84
e 22 87
e 22 88
e 22 96
e 22 97
e 22 99
e 22 100
e 23 24
e 23 25
e 23 26
e 23 27
e 23 28
e 23 29
e 23 30
e 23 31
e 23 32
e 23 34
e 23 35
e 23 36
e 23 39
e 23 40
e 23 43
e 23 44
e 23 46
e 23 47
e 23 50
e 23 52
e 23 55
e 23 56
e 23 57
e 23 60
e 23 62
e 23 65
e 23 80
e 23 85
e 23 86
e 23 88
e 23 91
e 23 97
e 24 25
e 24 27
e 24 28
e 24 29
e 24 30
e 24 31
e 24 33
e 24 34
e 24 35
e 24 36
e 24 37
e 24 38
e 24 42
e 24 46
e 24 49
e 24 57
e 24 59
e 24 60
e 24 69
e 24 72
e 24 74
e 24 78
e 24 91
e 24 94
e 24 96
e 25 26
e 25 28
e 25 29
e 25 31
e 25 32
e 25 33
e 25 39
e 25 41
e 25 42
e 25 44
e 25 45
e 25 48
e 25 49
e 25 51
e 25 54
e 25 56
e 25 57
e 25 59
e 25 60
e 25 61
e 25 62
e 25 65
e 25 70
e 25 73
e 25 74
e 25 75
e 25 84
e 25 86
e 25 90
e 25 95
e 26 27
e 26 30
e 26 31
e 26 35
e 26 36
e 26 43
e 26 45
e 26 47
e 26 48
e 26 51
e 26 58
e 26 62
e 26 66
e 26 79
e 26 82
e 26 85
e 26 86
e 26 87
e 26 93
e 26 94
e 26 96
e 26 98
e 27 28
e 27 29
e 27 30
e 27 32
e 27 33
e 27 35
e 27 38
e 27 40
e 27 41
e 27 45
e 27 46
e 27 49
e 27 51
e 27 53
e 27 55
e 27 56
e 27 58
e 27 65
e 27 69
e 27 71
e 27 73
e 27 75
e 27 81
e 27 82
e 27 85
e 27 90
e 27 92
e 27 93
e 28 29
e 28 30
e 28 31
e 28 32
e 28 33
e 28 34
e 28 35
e 28 37
e 28 38
e 28 40
e 28 45
e 28 49
e 28 50
e 28 51
e 28 52
e 28 54
e 28 58
e 28 59
e 28 61
e 28 66
e 28 67
e 28 68
e 28 70
e 28 71
e 28 73
e 28 76
e 28 77
e 28 85
e 28 89
e 28 90
e 28 91
e 28 95
e 28 98
e 28 99
e 28 100
e 29 31
e 29 32
e 29 34
e 29 39
e 29 41
e 29 42
e 29 47
e 29 53
e 29 60
e 29 62
e 29 64
e 29 75
e 29 76
e 29 77
e 29 78
e 29 80
e 29 83
e 29 87
e 29 88
e 29 89
e 29 95
e 30 33
e 30 34
e 30 35
e 30 36
e 30 42
e 30 48
e 30 55
e 30 58
e 30 68
e 30 73
e 30 90
e 30 94
e 30 95
e 31 33
e 31 39
e 31 40
e 31 41
e 31 42
e 31 43
e 31 46
e 31 47
e 31 54
e 31 57
e 31 61
e 31 63
e 31 64
e 31 65
e 31 66
e 31 67
e 31 71
e 31 73
e 31 79
e 31 87
e 31 88
e 31 94
e 31 96
e 32 34
e 32 39
e 32 40
e 32 41
e 32 42
e 32 47
e 32 48
e 32 52
e 32 56
e 32 58
e 32 60
e 32 61
e 32 67
e 32 71
e 32 75
e 32 76
e 32 77
e 32 78
e 32 84
e 32 92
e 32 95
e 33 34
e 33 36
e 33 37
e 33 38
e 33 39
e 33 43
e 33 44
e 33 45
e 33 49
e 33 56
e 33 64
e 33 66
e 33 68
e 33 69
e 33 70
e 33 71
e 33 72
e 33 73
e 33 81
e 33 92
e 34 37
e 34 38
e 34 39
e 34 43
e 34 50
e 34 53
e 34 55
e 34 57
e 34 58
e 34 59
e 34 61
e 34 62
e 34 63
e 34 64
e 34 67
e 34 70
e 34 74
e 34 79
e 34 84
e 34 97
e 34 99
e 35 37
e 35 40
e 35 43
e 35 46
e 35 47
e 35 52
e 35 53
e 35 54
e 35 55
e 35 66
e 35 68
e 35 74
e 35 75
e 35 78
e 35 82
e 35 83
e 35 84
e 35 89
e 35 95
e 35 100
e 36 37
e 36 42
e 36 44
e 36 47
e 36 49
e 36 51
e 36 54
e 36 57
e 36 58
e 36 59
e 36 66
e 36 67
e 36 73
e 36 74
e 36 81
e 36 82
e 36 83
e 36 85
e 36 87
e 36 99
e 37 39
e 37 40
e 37 45
e 37 46
e 37 48
e 37 57
e 37 69
e 37 77
e 37 78
e 37 79
e 37 80
e 37 92
e 37 95
e 38 39
e 38 40
e 38 46
e 38 48
e 38 50
e 38 53
e 38 63
e 38 64
e 38 70
e 38 72
e 38 76
e 38 83
e 38 85
e 38 86
e 38 88
e 38 91
e 38 93
e 38 99
e 39 41
e 39 43
e 39 50
e 39 53
e 39 59
e 39 81
e 39 84
e 39 94
e 39 96
e 40 52
e 40 53
e 40 54
e 40 65
e 40 77
e 40 79
e 40 83
e 40 91
e 40 92
e 41 44
e 41 45
e 41 46
e 41 47
e 41 49
e 41 51
e 41 54
e 41 55
e 41 57
e 41 60
e 41 61
e 41 63
e 41 66
e 41 70
e 41 74
e 41 76
e 41 78
e 41 82
e 41 84
e 42 49
e 42 50
e 42 52
e 42 54
e 42 61
e 42 69
e 42 72
e 42 78
e 42 85
e 43 44
e 43 48
e 43 56
e 43 57
e 43 59
e 43 70
e 43 74
e 43 76
e 43 78
e 43 84
e 43 97
e 43 99
e 44 45
e 44 53
e 44 63
e 44 76
e 44 90
e 44 100
e 45 46
e 45 48
e 45 55
e 45 59
e 45 61
e 45 64
e 45 65
e 45 66
e 45 67
e 45 71
e 45 92
e 45 94
e 46 50
e 46 55
e 46 58
e 46 60
e 46 74
e 46 76
e 46 83
e 46 87
e 46 92
e 46 97
e 46 100
e 47 48
e 47 50
e 47 58
e 47 62
e 47 65
e 47 68
e 47 69
e 47 74
e 47 75
e 47 76
e 47 82
e 47 86
e 47 91
e 47 96
e 47 97
e 47 98
e 48 54
e 48 56
e 48 59
e 48 63
e 48 78
e 48 80
e 49 51
e 49 53
e 49 55
e 49 56
e 49 59
e 49 62
e 49 63
e 49 64
e 49 67
e 49 72
e 49 83
e 49 86
e 49 95
e 50 51
e 50 52
e 50 60
e 50 67
e 50 72
e 51 52
e 51 55
e 51 56
e 51 58
e 51 59
e 51 68
e 51 73
e 51 88
e 51 93
e 51 99
e 52 56
e 52 60
e 52 64
e 52 69
e 52 70
e 52 74
e 52 75
e 52 81
e 52 86
e 52 88
e 52 89
e 52 92
e 52 94
e 53 54
e 53 62
e 53 72
e 53 79
e 53 82
e 53 90
e 54 56
e 54 58
e 54 61
e 54 66
e 54 68
e 54 70
e 54 74
e 54 88
e 54 89
e 54 91
e 54 92
e 54 93
e 54 95
e 55 59
e 55 60
e 55 61
e 55 72
e 55 77
e 55 80
e 55 83
e 56 61
e 56 63
e 56 70
e 56 75
e 56 77
e 56 79
e 56 82
e 56 85
e 56 93
e 56 95
e 57 61
e 57 63
e 57 67
e 57 68
e 57 77
e 57 80
e 57 83
e 57 86
e 57 96
e 57 98
e 58 60
e 58 61
e 58 64
e 58 65
e 58 75
e 58 76
e 58 87
e 58 98
e 58 99
e 58 100
e 59 62
e 59 73
e 59 79
e 59 88
e 60 69
e 60 83
e 60 91
e 60 92
e 60 97
e 60 100
e 61 67
e 61 76
e 61 77
e 61 85
e 61 87
e 61 93
e 62 64
e 62 68
e 62 71
e 62 88
e 62 94
e 62 95
e 62 97
e 62 98
e 63 64
e 63 65
e 63 80
e 63 93
e 63 96
e 64 65
e 64 67
e 64 69
e 64 72
e 64 73
e 64 74
e 64 79
e 64 80
e 64 81
e 64 85
e 64 86
e 64 88
e 64 92
e 64 96
e 64 99
e 65 66
e 65 73
e 65 77
e 65 78
e 65 85
e 65 87
e 65 89
e 65 95
e 66 81
e 66 84
e 67 72
e 67 74
e 67 78
e 67 86
e 67 94
e 67 95
e 68 80
e 69 71
e 69 76
e 69 77
e 69 82
e 69 84
e 69 85
e 69 87
e 69 94
e 69 100
e 70 72
e 70 100
e 71 72
e 71 76
e 71 82
e 71 89
e 72 80
e 72 89
e 72 90
e 72 99
e 73 79
e 73 82
e 74 90
e 74 92
e 75 76
e 75 77
e 75 82
e 75 87
e 75 89
e 75 90
e 75 97
e 77 81
e 77 84
e 77 86
e 77 91
e 77 98
e 78 80
e 78 89
e 78 94
e 79 88
e 79 90
e 79 92
e 80 84
e 80 98
e 81 84
e 81 92
e 82 86
e 82 91
e 82 93
e 82 95
e 82 96
e 82 99
e 83 99
e 84 88
e 84 90
e 84 93
e 84 95
e 84 97
e 84 99
e 85 86
e 85 87
e 86 89
e 87 97
e 87 98
e 88 91
e 89 93
e 89 98
e 90 96
e 92 93
e 92 99
e 94 97
e 95 97
e 95 98
e 95 100
e 96 100
